21795 10205 1561
19872 12128 1744
19333 13667 1725
21976 10024 1492
13836 16164 1560
15356 15644 1705
14164 15836 1674
21601 11399 1580
20003 12997 1573
12791 16209 1427
18614 12386 1781
18071 12929 1785
13843 16157 1586
15190 15810 1673
12812 16188 1507
18498 14502 1651
19038 12962 1764
15106 15894 1646
15957 15043 1746
16746 15254 1714
21116 11884 1675
21295 11705 1648
15157 15843 1665
17220 14780 1760
17530 14470 1761
11781 16219 1342
16551 15449 1656
19824 13176 1717
16635 15365 1683
20824 11176 1694
18506 14494 1687
20084 12916 1712
12795 16205 1461
16783 14217 1776
